NAME : u1060.opt.tour
COMMENT : Solution with NN for u1060.tsp (234435)
PARAMETERS : 
 - Temperature : 1894.0
 - Cooling Rate : 0.9000424925409432
 - Seed : -4712456852429544017
TYPE : TOUR
DIMENSION : 1060
LENGTH : 234435
TOUR_SECTION
1
2
3
4
5
6
7
8
137
127
126
125
9
122
123
15
16
18
17
19
20
14
13
21
22
23
26
25
24
35
36
33
34
1044
1043
1042
1041
1040
1039
37
38
39
40
41
42
43
44
45
46
49
50
51
52
53
54
55
56
58
59
61
60
62
63
64
65
66
67
68
69
70
71
72
73
74
75
76
77
81
80
79
78
82
83
48
47
84
85
86
87
88
92
89
90
91
94
93
892
95
96
97
98
99
100
101
102
103
104
105
106
107
108
117
115
116
119
118
120
121
129
124
128
130
131
134
135
133
136
138
139
140
141
142
143
144
145
146
147
148
149
150
151
152
153
154
155
157
156
165
166
158
159
160
161
162
163
164
167
168
169
170
171
172
173
174
175
176
177
178
179
180
181
182
183
184
185
186
187
188
189
190
191
192
193
194
195
199
201
202
203
204
205
206
210
211
213
212
207
208
209
217
218
219
221
222
223
224
232
233
234
235
236
237
238
239
240
246
244
245
247
314
313
315
316
317
816
306
318
319
320
321
322
324
323
327
326
351
350
352
353
354
349
355
356
357
358
361
362
363
364
365
370
371
373
372
369
368
367
366
359
360
494
493
492
491
489
490
488
487
486
485
484
412
421
420
422
423
424
425
426
427
418
417
416
419
414
415
413
411
410
409
408
407
406
388
387
386
385
384
383
382
381
380
379
378
377
376
375
374
281
282
283
284
285
286
287
288
289
292
291
290
293
294
295
296
297
299
298
300
302
301
303
304
305
307
308
309
312
311
310
248
249
251
250
252
253
255
254
256
257
258
263
262
261
260
259
200
198
197
196
264
265
266
267
268
269
272
271
270
273
277
278
280
279
390
389
276
275
274
391
392
393
394
395
396
397
398
399
405
404
400
403
401
402
428
429
430
431
432
433
435
434
436
437
438
439
440
441
442
448
447
449
451
452
450
458
457
456
459
462
463
464
465
469
468
467
466
470
471
473
474
472
475
476
477
478
479
481
480
482
483
497
496
495
498
500
499
507
508
509
510
511
506
513
512
514
505
501
502
503
504
518
519
520
516
515
517
521
522
523
524
525
526
527
528
529
530
531
532
533
534
535
536
537
539
540
541
542
543
544
547
546
548
549
550
551
552
553
554
555
461
460
556
557
558
559
560
561
562
563
564
565
566
567
568
572
573
574
575
576
577
578
579
580
581
582
583
584
585
586
588
587
591
590
589
569
570
571
455
454
453
595
592
593
594
596
597
598
446
599
600
445
444
443
601
602
603
605
604
606
607
609
608
610
611
612
613
614
615
616
617
618
624
619
620
621
622
623
625
626
628
627
629
630
631
632
633
634
635
636
637
638
639
640
641
642
643
644
645
646
647
648
651
650
649
652
653
654
655
656
657
658
659
660
661
662
663
664
665
666
667
668
669
670
673
672
678
679
677
676
674
675
671
683
684
685
686
687
688
689
690
682
681
680
712
713
714
715
716
717
718
719
711
710
709
720
721
722
708
707
706
702
703
705
704
691
692
693
694
695
696
697
698
701
699
700
723
724
725
726
727
728
729
731
730
732
733
734
735
736
737
738
545
739
740
741
742
743
744
745
746
747
748
749
538
750
751
752
753
754
755
756
757
758
759
760
761
762
763
764
765
766
767
768
769
770
777
778
776
771
772
773
774
775
779
780
781
782
783
784
785
786
787
788
789
790
791
792
793
794
795
796
797
798
799
800
801
802
803
804
805
337
336
338
341
340
339
342
343
344
347
348
346
345
328
329
330
325
331
335
333
332
334
806
807
808
809
810
811
812
813
814
815
817
818
821
835
822
823
824
826
825
831
830
829
828
832
827
833
834
939
838
836
837
820
819
839
840
243
242
241
841
842
843
844
845
846
847
848
849
850
851
852
855
854
853
229
231
230
228
227
226
225
856
857
860
858
859
220
861
862
863
864
865
866
216
214
215
867
868
869
870
871
872
873
874
875
876
877
879
878
880
881
882
889
883
888
884
886
887
885
132
114
112
113
109
111
110
890
891
893
894
895
896
897
898
899
900
901
902
903
904
906
905
907
909
910
911
908
912
913
914
915
916
917
926
927
925
924
918
920
919
921
922
923
938
937
936
935
940
941
942
944
943
967
968
969
966
945
946
947
948
949
934
933
932
929
931
930
928
953
952
954
951
955
956
950
964
957
960
959
958
961
962
963
965
975
970
972
971
973
974
976
977
978
979
980
981
982
983
984
986
985
987
988
989
990
991
992
993
994
995
996
997
998
999
1000
1002
1003
1004
1005
1006
1023
1024
1025
1022
1007
1008
1009
1010
1011
1012
1001
1014
1013
1015
1016
1017
1020
1021
1026
1027
1019
1018
1028
1030
1029
1031
1032
1033
57
1034
1035
1036
1037
1038
1045
1046
1047
1048
1049
1050
1051
32
27
28
29
12
30
31
11
10
1053
1054
1052
1055
1056
1057
1058
1059
1060
-1
EOF